Welcome to the CBC MILP Solver 
Version: 2.8.9 
Build Date: Nov 24 2015 

command line - /vol/cc/opt/maxeler/maxcompiler-2015.2/bin/cbc maxpooling10_schedule_C.mps.gz -threads 4 -solve -printi csv -solu maxpooling10_schedule_C.csv (default strategy 1)
At line 1 NAME           CxSchedule
At line 2 ROWS
At line 209 COLUMNS
At line 510 RHS
At line 614 BOUNDS
At line 750 ENDATA
Problem CxSchedule has 205 rows, 135 columns and 510 elements
Coin0008I CxSchedule read with 0 errors
threads was changed from 0 to 4
Continuous objective value is 42058 - 0.00 seconds
Cgl0003I 0 fixed, 179 tightened bounds, 0 strengthened rows, 0 substitutions
Cgl0003I 0 fixed, 80 tightened bounds, 0 strengthened rows, 0 substitutions
Cgl0003I 0 fixed, 45 tightened bounds, 0 strengthened rows, 0 substitutions
Cgl0003I 0 fixed, 11 tightened bounds, 0 strengthened rows, 0 substitutions
Cgl0004I processed model has 205 rows, 131 columns (131 integer) and 510 elements
Cutoff increment increased from 1e-05 to 0.9999
Cbc0012I Integer solution of 42058 found by DiveCoefficient after 0 iterations and 0 nodes (0.01 seconds)
Cbc0030I Thread 0 used 0 times,  waiting to start 0.0016744137, 0 cpu time, 0 locks, 0 locked, 0 waiting for locks
Cbc0030I Thread 1 used 0 times,  waiting to start 0.0015377998, 0 cpu time, 0 locks, 0 locked, 0 waiting for locks
Cbc0030I Thread 2 used 0 times,  waiting to start 0.0012898445, 0 cpu time, 0 locks, 0 locked, 0 waiting for locks
Cbc0030I Thread 3 used 0 times,  waiting to start 0.0010566711, 0 cpu time, 0 locks, 0 locked, 0 waiting for locks
Cbc0030I Main thread 0 waiting for threads,  1 locks, 5.7220459e-06 locked, 4.7683716e-07 waiting for locks
Cbc0001I Search completed - best objective 42058, took 0 iterations and 0 nodes (0.01 seconds)
Cbc0035I Maximum depth 0, 0 variables fixed on reduced cost
Cuts at root node changed objective from 42058 to 42058
Probing was tried 0 times and created 0 cuts of which 0 were active after adding rounds of cuts (0.000 seconds)
Gomory was tried 0 times and created 0 cuts of which 0 were active after adding rounds of cuts (0.000 seconds)
Knapsack was tried 0 times and created 0 cuts of which 0 were active after adding rounds of cuts (0.000 seconds)
Clique was tried 0 times and created 0 cuts of which 0 were active after adding rounds of cuts (0.000 seconds)
MixedIntegerRounding2 was tried 0 times and created 0 cuts of which 0 were active after adding rounds of cuts (0.000 seconds)
FlowCover was tried 0 times and created 0 cuts of which 0 were active after adding rounds of cuts (0.000 seconds)
TwoMirCuts was tried 0 times and created 0 cuts of which 0 were active after adding rounds of cuts (0.000 seconds)

Result - Optimal solution found

Objective value:                42058.00000000
Enumerated nodes:               0
Total iterations:               0
Time (CPU seconds):             0.01
Time (Wallclock seconds):       0.02

Option for printingOptions changed from normal to csv
Total time (CPU seconds):       0.02   (Wallclock seconds):       0.02

